Solving original (integer) problem with strategy gdp.bigm...
--- Job model.gms Start 02/14/26 18:57:52 52.2.0 d8e408be LEX-LEG x86 64bit/Linux
--- Applying:
    /package/gams/52.2/gmsprmun.txt
--- GAMS Parameters defined
    Input /local/scratch/a/sgusev/repos/k_means/data/gams_gurobi_gdp.bigm/no_mode/2026-02-14_18-57-52/original/model.gms
    Output /local/scratch/a/sgusev/repos/k_means/data/gams_gurobi_gdp.bigm/no_mode/2026-02-14_18-57-52/original/output.lst
    ScrDir /local/scratch/a/sgusev/repos/k_means/data/gams_gurobi_gdp.bigm/no_mode/2026-02-14_18-57-52/original/225a/
    SysDir /package/gams/52.2/
    CurDir /local/scratch/a/sgusev/repos/k_means/data/gams_gurobi_gdp.bigm/no_mode/2026-02-14_18-57-52/original/
    LogOption 3
    AppendLog 1
Licensee: David Bernal / SECQUOIA Research Group         G251008+0003Ac-GEN
          Purdue University, Davidson School of Chemical EngineeringDCE4838
          225a/gamslice.dat
          5a82958a-fbca-4a23
          node:66820903 mem:995 cores:48 ipport:42311 v:2                  
          Evaluation license: Not for commercial or production use
          The time-limited license stops working on : Jun 30, 2027
System information: 48 physical cores and 995 Gb physical memory detected
GAMS 52.2.0   Copyright (C) 1987-2025 GAMS Development. All rights reserved
--- Starting compilation
--- model.gms(285) 2 Mb
--- $echo File /local/scratch/a/sgusev/repos/k_means/data/gams_gurobi_gdp.bigm/no_mode/2026-02-14_18-57-52/original/gurobi.opt
--- model.gms(504) 2 Mb
--- Starting execution: elapsed 0:00:00.006
--- model.gms(294) 3 Mb
--- Generating MINLP model GAMS_MODEL
--- model.gms(298) 5 Mb
---   74 rows  79 columns  301 non-zeroes
---   504 nl-code  112 nl-non-zeroes
---   56 discrete-columns
--- Range statistics (absolute non-zero finite values)
--- RHS       [min, max] : [ 1.000E+00, 6.372E+00] - Zero values observed as well
--- Bound     [min, max] : [ 1.000E+00, 5.600E+01] - Zero values observed as well
--- Matrix    [min, max] : [ 1.218E-01, 6.372E+00]
--- model.gms(298) 3 Mb
--- Executing GUROBI (Solvelink=5): elapsed 0:00:00.010
Reading parameter(s) from "/local/scratch/a/sgusev/repos/k_means/data/gams_gurobi_gdp.bigm/no_mode/2026-02-14_18-57-52/original/gurobi.opt"
>>  NonConvex 2
>>  Threads 1
>>  MIPGap 1e-06
>>  MIPGapAbs 1e-10
>>  FeasibilityTol 1e-06
>>  OptimalityTol 1e-06
>>  IntFeasTol 1e-05
Finished reading from "/local/scratch/a/sgusev/repos/k_means/data/gams_gurobi_gdp.bigm/no_mode/2026-02-14_18-57-52/original/gurobi.opt"

... GRB_LICENSE_FILE = /local/scratch/a/sgusev/gurobi.lic

    Gurobi           52.2.0 d8e408be Dec 8, 2025           LEG x86 64bit/Linux    

... GAMS/Gurobi Link license.
... GMO Q Extraction (ThreePass): 0.00s

    Gurobi Optimizer version 13.0.0 build v13.0.0rc1 (linux64 - "Oracle Linux Server 9.7")
    
    CPU model: AMD EPYC 7643 48-Core Processor, instruction set [SSE2|AVX|AVX2]
    Thread count: 48 physical cores, 96 logical processors, using up to 1 threads
    
    Non-default parameters:
    TimeLimit  300
    MIPGap  1e-06
    LogToConsole  0
    NonConvex  2
    Threads  1
    
    Optimize a model with 17 rows, 78 columns and 62 nonzeros (Min)
    Model fingerprint: 0xdf140778
    Model has 14 linear objective coefficients
    Model has 56 quadratic constraints
    Variable types: 22 continuous, 56 integer (0 binary)
    Coefficient statistics:
      Matrix range     [1e+00, 1e+00]
      QMatrix range    [1e+00, 1e+00]
      QLMatrix range   [1e-01, 6e+00]
      Objective range  [1e+00, 1e+00]
      Bounds range     [1e+00, 6e+01]
      RHS range        [1e+00, 1e+00]
      QRHS range       [3e+00, 5e+00]
    Presolve added 56 rows and 4 columns
    Presolve time: 0.00s
    Presolved: 73 rows, 82 columns, 342 nonzeros
    Presolved model has 4 quadratic constraint(s)
    Variable types: 26 continuous, 56 integer (56 binary)
    
    Root relaxation: objective 0.000000e+00, 24 iterations, 0.00 seconds (0.00 work units)
    
        Nodes    |    Current Node    |     Objective Bounds      |     Work
     Expl Unexpl |  Obj  Depth IntInf | Incumbent    BestBd   Gap | It/Node Time
    
    H    0     0                       2.9261425    0.00000   100%     -    0s
    *    0     0               0       2.9261425    0.00000   100%     -    0s
         0     0    0.00000    0   16    2.92614    0.00000   100%     -    0s
         0     0    0.00000    0   28    2.92614    0.00000   100%     -    0s
         0     0    0.00000    0   28    2.92614    0.00000   100%     -    0s
         0     0    0.00000    0   27    2.92614    0.00000   100%     -    0s
         0     0    0.00000    0    -    2.92614    0.00000   100%     -    0s
         0     0    0.00000    0   18    2.92614    0.00000   100%     -    0s
         0     0    0.00000    0   24    2.92614    0.00000   100%     -    0s
         0     0    0.00000    0   26    2.92614    0.00000   100%     -    0s
         0     0    0.00000    0    6    2.92614    0.00000   100%     -    0s
    H    0     0                       2.0457234    0.00000   100%     -    0s
         0     0    0.00000    0   20    2.04572    0.00000   100%     -    0s
         0     0    0.00000    0   22    2.04572    0.00000   100%     -    0s
         0     0    0.00000    0   22    2.04572    0.00000   100%     -    0s
         0     0    0.00000    0   27    2.04572    0.00000   100%     -    0s
         0     0    0.00000    0   26    2.04572    0.00000   100%     -    0s
         0     0    0.00000    0   28    2.04572    0.00000   100%     -    0s
         0     0    0.00000    0    8    2.04572    0.00000   100%     -    0s
         0     0    0.00000    0   16    2.04572    0.00000   100%     -    0s
         0     0    0.00000    0   16    2.04572    0.00000   100%     -    0s
         0     0    0.00000    0   25    2.04572    0.00000   100%     -    0s
         0     0    0.00000    0   12    2.04572    0.00000   100%     -    0s
         0     0    0.00000    0   16    2.04572    0.00000   100%     -    0s
         0     0    0.00000    0   16    2.04572    0.00000   100%     -    0s
         0     0    0.00000    0   26    2.04572    0.00000   100%     -    0s
         0     0    0.00000    0    8    2.04572    0.00000   100%     -    0s
         0     0    0.00000    0   14    2.04572    0.00000   100%     -    0s
         0     0    0.00000    0   14    2.04572    0.00000   100%     -    0s
         0     0    0.00000    0   22    2.04572    0.00000   100%     -    0s
         0     0    0.00000    0   18    2.04572    0.00000   100%     -    0s
         0     0    0.00000    0   18    2.04572    0.00000   100%     -    0s
         0     0    0.00000    0    9    2.04572    0.00000   100%     -    0s
         0     0    0.00000    0   17    2.04572    0.00000   100%     -    0s
         0     0    0.00000    0   17    2.04572    0.00000   100%     -    0s
         0     0    0.00000    0   25    2.04572    0.00000   100%     -    0s
         0     0    0.00000    0   10    2.04572    0.00000   100%     -    0s
         0     0    0.00000    0   26    2.04572    0.00000   100%     -    0s
         0     0    0.00000    0    8    2.04572    0.00000   100%     -    0s
         0     0    0.00000    0   20    2.04572    0.00000   100%     -    0s
         0     0    0.00000    0   12    2.04572    0.00000   100%     -    0s
         0     0    0.00000    0   12    2.04572    0.00000   100%     -    0s
         0     0    0.00000    0   12    2.04572    0.00000   100%     -    0s
         0     0    0.00000    0   24    2.04572    0.00000   100%     -    0s
         0     0    0.00000    0   12    2.04572    0.00000   100%     -    0s
         0     0    0.00000    0   20    2.04572    0.00000   100%     -    0s
         0     0    0.00000    0   18    2.04572    0.00000   100%     -    0s
         0     0    0.00000    0   24    2.04572    0.00000   100%     -    0s
         0     0    0.00000    0   22    2.04572    0.00000   100%     -    0s
         0     0    0.00000    0   22    2.04572    0.00000   100%     -    0s
         0     0    0.00000    0   22    2.04572    0.00000   100%     -    0s
         0     0    0.00000    0   26    2.04572    0.00000   100%     -    0s
         0     0    0.00000    0    6    2.04572    0.00000   100%     -    0s
         0     0    0.00000    0   20    2.04572    0.00000   100%     -    0s
         0     0    0.00000    0   16    2.04572    0.00000   100%     -    0s
         0     0    0.00000    0   18    2.04572    0.00000   100%     -    0s
         0     0    0.00000    0   18    2.04572    0.00000   100%     -    0s
         0     0    0.00000    0   26    2.04572    0.00000   100%     -    0s
         0     0    0.00000    0    8    2.04572    0.00000   100%     -    0s
         0     0    0.00000    0   22    2.04572    0.00000   100%     -    0s
         0     0    0.00000    0    4    2.04572    0.00000   100%     -    0s
         0     0    0.00000    0   16    2.04572    0.00000   100%     -    0s
         0     0    0.00000    0   14    2.04572    0.00000   100%     -    0s
         0     0    0.00000    0   14    2.04572    0.00000   100%     -    0s
         0     0    0.00000    0   14    2.04572    0.00000   100%     -    0s
         0     0    0.00000    0   18    2.04572    0.00000   100%     -    0s
         0     0    0.00000    0   16    2.04572    0.00000   100%     -    0s
         0     0    0.00000    0   22    2.04572    0.00000   100%     -    0s
         0     0    0.00000    0    8    2.04572    0.00000   100%     -    0s
         0     0    0.00000    0   14    2.04572    0.00000   100%     -    0s
         0     0    0.00000    0   14    2.04572    0.00000   100%     -    0s
         0     0    0.00000    0   26    2.04572    0.00000   100%     -    0s
         0     0    0.00000    0   24    2.04572    0.00000   100%     -    0s
         0     0    0.00000    0   22    2.04572    0.00000   100%     -    0s
         0     0    0.00000    0   22    2.04572    0.00000   100%     -    0s
         0     0    0.00000    0   22    2.04572    0.00000   100%     -    0s
         0     0    0.00000    0    6    2.04572    0.00000   100%     -    0s
         0     0    0.00000    0   16    2.04572    0.00000   100%     -    0s
         0     0    0.00000    0   16    2.04572    0.00000   100%     -    0s
         0     0    0.00000    0   16    2.04572    0.00000   100%     -    0s
         0     0    0.00000    0   16    2.04572    0.00000   100%     -    0s
         0     0    0.00000    0   22    2.04572    0.00000   100%     -    0s
         0     0    0.00000    0   18    2.04572    0.00000   100%     -    0s
         0     0    0.00000    0   20    2.04572    0.00000   100%     -    0s
         0     0    0.00000    0    2    2.04572    0.00000   100%     -    0s
         0     0    0.00000    0   24    2.04572    0.00000   100%     -    0s
         0     0    0.00000    0   20    2.04572    0.00000   100%     -    0s
         0     0    0.00000    0   20    2.04572    0.00000   100%     -    0s
         0     0    0.00000    0   20    2.04572    0.00000   100%     -    0s
         0     0    0.00000    0   20    2.04572    0.00000   100%     -    0s
         0     0    0.00000    0   10    2.04572    0.00000   100%     -    0s
         0     0    0.00000    0   24    2.04572    0.00000   100%     -    0s
         0     0    0.00000    0   24    2.04572    0.00000   100%     -    0s
         0     0    0.00000    0   26    2.04572    0.00000   100%     -    0s
         0     0    0.00000    0    8    2.04572    0.00000   100%     -    0s
         0     0    0.00000    0   12    2.04572    0.00000   100%     -    0s
         0     0    0.00000    0   12    2.04572    0.00000   100%     -    0s
         0     0    0.00000    0   14    2.04572    0.00000   100%     -    0s
         0     0    0.00000    0    6    2.04572    0.00000   100%     -    0s
         0     0    0.00000    0   20    2.04572    0.00000   100%     -    0s
         0     0    0.00000    0   20    2.04572    0.00000   100%     -    0s
         0     0    0.00000    0   16    2.04572    0.00000   100%     -    0s
         0     0    0.00000    0   16    2.04572    0.00000   100%     -    0s
         0     0    0.00000    0   22    2.04572    0.00000   100%     -    0s
         0     0    0.00000    0   20    2.04572    0.00000   100%     -    0s
         0     0    0.00000    0   22    2.04572    0.00000   100%     -    0s
         0     0    0.00000    0   22    2.04572    0.00000   100%     -    0s
         0     0    0.00000    0   18    2.04572    0.00000   100%     -    0s
         0     0    0.00000    0   18    2.04572    0.00000   100%     -    0s
         0     0    0.00000    0   22    2.04572    0.00000   100%     -    0s
         0     0    0.00000    0   22    2.04572    0.00000   100%     -    0s
         0     0    0.00000    0   24    2.04572    0.00000   100%     -    0s
         0     0    0.00000    0   10    2.04572    0.00000   100%     -    0s
         0     0    0.00000    0   22    2.04572    0.00000   100%     -    0s
         0     0    0.00000    0   22    2.04572    0.00000   100%     -    0s
         0     0    0.00000    0   22    2.04572    0.00000   100%     -    0s
         0     0    0.00000    0   20    2.04572    0.00000   100%     -    0s
         0     0    0.00000    0   22    2.04572    0.00000   100%     -    0s
         0     0    0.00000    0   22    2.04572    0.00000   100%     -    0s
         0     0    0.00000    0   24    2.04572    0.00000   100%     -    0s
         0     0    0.00000    0    8    2.04572    0.00000   100%     -    0s
         0     0    0.00000    0   16    2.04572    0.00000   100%     -    0s
         0     0    0.00000    0   16    2.04572    0.00000   100%     -    0s
         0     0    0.00000    0   20    2.04572    0.00000   100%     -    0s
         0     0    0.00000    0   16    2.04572    0.00000   100%     -    0s
         0     0    0.00000    0   18    2.04572    0.00000   100%     -    0s
         0     0    0.00000    0   16    2.04572    0.00000   100%     -    0s
         0     0    0.00000    0   20    2.04572    0.00000   100%     -    0s
         0     0    0.00000    0   10    2.04572    0.00000   100%     -    0s
         0     0    0.00000    0   15    2.04572    0.00000   100%     -    0s
         0     0    0.00000    0   15    2.04572    0.00000   100%     -    0s
         0     0    0.00000    0   23    2.04572    0.00000   100%     -    0s
         0     0    0.00000    0   22    2.04572    0.00000   100%     -    0s
         0     0    0.00000    0   22    2.04572    0.00000   100%     -    0s
         0     0    0.00000    0   22    2.04572    0.00000   100%     -    0s
         0     0    0.00000    0   26    2.04572    0.00000   100%     -    0s
         0     0    0.00000    0   22    2.04572    0.00000   100%     -    0s
         0     0    0.00000    0   24    2.04572    0.00000   100%     -    0s
         0     0    0.00000    0    6    2.04572    0.00000   100%     -    0s
         0     0    0.00000    0   16    2.04572    0.00000   100%     -    0s
         0     0    0.00000    0   16    2.04572    0.00000   100%     -    0s
         0     0    0.00000    0   20    2.04572    0.00000   100%     -    0s
         0     0    0.00000    0   10    2.04572    0.00000   100%     -    0s
         0     0    0.00000    0   18    2.04572    0.00000   100%     -    0s
         0     0    0.00000    0   18    2.04572    0.00000   100%     -    0s
         0     0    0.00000    0   22    2.04572    0.00000   100%     -    0s
         0     0    0.00000    0   22    2.04572    0.00000   100%     -    0s
         0     0    0.00000    0   24    2.04572    0.00000   100%     -    0s
         0     0    0.00000    0   16    2.04572    0.00000   100%     -    0s
         0     0    0.00000    0   22    2.04572    0.00000   100%     -    0s
         0     0    0.00000    0    2    2.04572    0.00000   100%     -    0s
         0     0    0.00000    0   18    2.04572    0.00000   100%     -    0s
         0     0    0.00000    0   18    2.04572    0.00000   100%     -    0s
         0     0    0.00000    0   24    2.04572    0.00000   100%     -    0s
         0     0    0.00000    0   22    2.04572    0.00000   100%     -    0s
         0     0    0.00000    0   24    2.04572    0.00000   100%     -    0s
         0     0    0.00000    0   18    2.04572    0.00000   100%     -    0s
         0     0    0.00000    0   26    2.04572    0.00000   100%     -    0s
         0     0    0.00000    0   14    2.04572    0.00000   100%     -    0s
         0     0    0.00000    0   12    2.04572    0.00000   100%     -    0s
         0     0    0.00000    0   12    2.04572    0.00000   100%     -    0s
         0     0    0.00000    0   18    2.04572    0.00000   100%     -    0s
         0     0    0.00000    0   18    2.04572    0.00000   100%     -    0s
         0     0    0.00000    0   20    2.04572    0.00000   100%     -    0s
         0     0    0.00000    0   18    2.04572    0.00000   100%     -    0s
         0     0    0.00000    0   20    2.04572    0.00000   100%     -    0s
         0     0    0.00000    0   20    2.04572    0.00000   100%     -    0s
         0     0    0.00000    0   26    2.04572    0.00000   100%     -    0s
         0     0    0.00000    0    4    2.04572    0.00000   100%     -    0s
         0     0    0.00000    0   25    2.04572    0.00000   100%     -    0s
         0     0    0.00000    0   20    2.04572    0.00000   100%     -    0s
         0     0    0.00000    0   24    2.04572    0.00000   100%     -    0s
         0     0    0.00000    0   18    2.04572    0.00000   100%     -    0s
         0     0    0.00000    0   22    2.04572    0.00000   100%     -    0s
         0     0    0.00000    0    6    2.04572    0.00000   100%     -    0s
         0     0    0.00000    0   20    2.04572    0.00000   100%     -    0s
         0     0    0.00000    0   20    2.04572    0.00000   100%     -    0s
         0     0    0.00000    0   26    2.04572    0.00000   100%     -    0s
         0     0    0.00000    0    4    2.04572    0.00000   100%     -    0s
         0     0    0.00000    0   14    2.04572    0.00000   100%     -    0s
         0     0    0.00000    0   10    2.04572    0.00000   100%     -    0s
         0     0    0.00000    0   20    2.04572    0.00000   100%     -    0s
         0     0    0.00000    0    2    2.04572    0.00000   100%     -    0s
         0     0    0.00000    0   14    2.04572    0.00000   100%     -    0s
         0     0    0.00000    0   14    2.04572    0.00000   100%     -    0s
         0     0    0.00000    0   22    2.04572    0.00000   100%     -    0s
         0     0    0.00000    0   14    2.04572    0.00000   100%     -    0s
         0     0    0.00000    0   14    2.04572    0.00000   100%     -    0s
         0     0    0.00000    0    4    2.04572    0.00000   100%     -    0s
         0     0    0.00000    0   24    2.04572    0.00000   100%     -    0s
         0     0    0.00000    0   22    2.04572    0.00000   100%     -    0s
         0     0    0.00000    0   24    2.04572    0.00000   100%     -    0s
         0     0    0.00000    0    6    2.04572    0.00000   100%     -    0s
         0     0    0.00000    0   16    2.04572    0.00000   100%     -    0s
         0     0    0.00000    0   16    2.04572    0.00000   100%     -    0s
         0     0    0.00000    0   26    2.04572    0.00000   100%     -    0s
         0     0    0.00000    0   22    2.04572    0.00000   100%     -    0s
         0     0    0.00000    0   24    2.04572    0.00000   100%     -    0s
         0     0    0.00000    0   24    2.04572    0.00000   100%     -    0s
         0     0    0.00000    0   26    2.04572    0.00000   100%     -    0s
         0     0    0.00000    0   12    2.04572    0.00000   100%     -    0s
         0     0    0.00000    0   22    2.04572    0.00000   100%     -    0s
         0     0    0.00000    0   14    2.04572    0.00000   100%     -    0s
         0     0    0.00000    0   24    2.04572    0.00000   100%     -    0s
         0     0    0.00000    0   20    2.04572    0.00000   100%     -    0s
         0     0    0.00000    0   24    2.04572    0.00000   100%     -    0s
         0     0    0.00000    0   20    2.04572    0.00000   100%     -    0s
    H    0     0                       1.8998021    0.00000   100%     -    0s
         0     2    0.00000    0    2    1.89980    0.00000   100%     -    0s
    H   52    45                       1.8998021    0.00000   100%   8.6    0s
    H   91    56                       1.5416897    0.00000   100%   8.3    0s
    H  159    97                       1.5416897    0.00000   100%   7.1    0s
    H  265   145                       1.5416897    0.00000   100%   6.8    0s
    H  317   165                       1.5416897    0.00000   100%   6.9    0s
    H  325   115                       1.2370967    0.00000   100%   6.9    0s
    H  367   138                       1.2370957    0.00000   100%   6.7    0s
    H  376   136                       1.2370956    0.00000   100%   6.5    0s
    H  384   135                       1.2370956    0.00000   100%   6.4    0s
    H  482   188                       1.2370956    0.00000   100%  44.1    1s
    H  483   178                       1.2370955    0.00000   100%  44.1    1s
    H  485   168                       1.2370955    0.00000   100%  44.0    1s
    H  511   168                       1.2370955    0.00000   100%  42.1    1s
    H 1293   283                       1.2370955    0.00000   100%  21.9    1s
    H 1355   295                       1.2116213    0.00000   100%  21.3    1s
    H 1360   298                       1.2116212    0.00000   100%  21.3    1s
    H 1365   295                       1.2116212    0.00000   100%  21.3    1s
    H 1366   296                       1.2116212    0.00000   100%  21.3    1s
    H 1367   297                       1.2116212    0.00000   100%  21.3    1s
    H 1370   300                       1.2116212    0.00000   100%  21.2    1s
    H 2900   510                       1.1191839    0.34177  69.5%  14.0    2s
    H 4264   355                       1.1100134    0.66122  40.4%  12.4    2s
    * 4872     0              40       1.1100134    1.11001  0.00%  12.0    2s
    
    Cutting planes:
      Flow cover: 3
      Inf proof: 1
    
    Explored 4873 nodes (66912 simplex iterations) in 2.61 seconds (2.00 work units)
    Thread count was 1 (of 96 available processors)
    
    Solution count 8: 1.11001 1.11918 1.21162 ... 2.92614
    
    Optimal solution found (tolerance 1.00e-06)
    Best objective 1.110013398358e+00, best bound 1.110013398358e+00, gap 0.0000%
    
    User-callback calls 5000, time in user-callback 0.00 sec

... Solving fixed model...

    Gurobi Optimizer version 13.0.0 build v13.0.0rc1 (linux64 - "Oracle Linux Server 9.7")
    
    CPU model: AMD EPYC 7643 48-Core Processor, instruction set [SSE2|AVX|AVX2]
    Thread count: 48 physical cores, 96 logical processors, using up to 1 threads
    
    Non-default parameters:
    TimeLimit  300
    MIPGap  1e-06
    LogToConsole  0
    NonConvex  2
    Threads  1
    
    Optimize a model with 17 rows, 78 columns and 62 nonzeros (Min)
    Model fingerprint: 0x653efff3
    Model has 14 linear objective coefficients
    Model has 56 quadratic constraints
    Coefficient statistics:
      Matrix range     [1e+00, 1e+00]
      QMatrix range    [1e+00, 1e+00]
      QLMatrix range   [1e-01, 6e+00]
      Objective range  [1e+00, 1e+00]
      Bounds range     [1e+00, 6e+01]
      RHS range        [1e+00, 1e+00]
      QRHS range       [3e+00, 5e+00]
    Presolve removed 14 rows and 56 columns
    Presolve time: 0.00s
    Presolved: 55 rows, 70 columns, 134 nonzeros
    Presolved model has 14 second-order cone constraints
    Ordering time: 0.00s
    
    Barrier statistics:
     AA' NZ     : 3.230e+02
     Factor NZ  : 4.950e+02
     Factor Ops : 5.947e+03 (less than 1 second per iteration)
     Threads    : 1
    
                      Objective                Residual
    Iter       Primal          Dual         Primal    Dual     Compl     Time
       0   5.93134840e+02 -2.94544261e+02  1.66e+01 2.85e+00  1.44e+01     0s
       1   7.78620795e+01 -5.89610489e+01  3.14e-01 3.14e-06  1.41e+00     0s
       2   2.89261796e+00 -4.46329446e+00  7.34e-03 2.15e-07  7.44e-02     0s
       3   1.99692928e+00 -3.37292727e-01  9.98e-06 3.90e-08  2.38e-02     0s
       4   1.35947278e+00  7.68137165e-01  1.54e-06 6.84e-09  6.03e-03     0s
       5   1.13573933e+00  1.07817133e+00  1.98e-07 4.53e-10  5.87e-04     0s
       6   1.11114716e+00  1.10873011e+00  6.37e-13 1.12e-11  2.47e-05     0s
       7   1.11013349e+00  1.10992970e+00  3.08e-11 4.12e-13  2.08e-06     0s
       8   1.11003996e+00  1.10999637e+00  2.74e-10 5.21e-13  4.45e-07     0s
       9   1.11001599e+00  1.11001081e+00  4.06e-09 1.25e-12  5.29e-08     0s
      10   1.11001368e+00  1.11001310e+00  4.01e-09 3.59e-12  5.94e-09     0s
    
    Barrier solved model in 10 iterations and 0.00 seconds (0.00 work units)
    Optimal objective 1.11001368e+00
    
    
    User-callback calls 0, time in user-callback 0.00 sec
    Warning: to get QCP duals, please set parameter QCPDual to 1

--- Reading solution for model GAMS_MODEL
***
*** Solver did not provide marginals for model GAMS_MODEL
***
--- Executing after solve: elapsed 0:00:02.661
--- model.gms(301) 3 Mb
--- model.gms(504) 5 Mb
--- Putfile results /local/scratch/a/sgusev/repos/k_means/data/gams_gurobi_gdp.bigm/no_mode/2026-02-14_18-57-52/original/results.dat
--- Putfile statresults /local/scratch/a/sgusev/repos/k_means/data/gams_gurobi_gdp.bigm/no_mode/2026-02-14_18-57-52/original/resultsstat.dat
*** Status: Normal completion
--- Job model.gms Stop 02/14/26 18:57:55 elapsed 0:00:02.662
Original problem solved. Time taken: 3.227818489074707 seconds
Original objective value: 1.110013684952442
